c t pwmc
c file mc2023_track4_137.cnf
p cnf 80 456
c p show 2 3 5 6 7 8 9 10 12 13 14 15 16 17 19 20 21 23 24 25 26 28 29 30 31 32 33 34 35 36 38 40 41 42 44 46 48 49 50 53 54 55 56 57 59 60 62 65 66 67 68 69 70 71 72 73 74 75 76 78 0
59 19 60 20 0
-77 -37 -18 -58 0
37 -77 18 -58 0
77 -37 58 -18 0
37 77 18 58 0
-18 -58 -24 -64 0
18 -58 24 -64 0
58 -18 64 -24 0
18 58 24 64 0
-18 -58 -38 -78 0
18 -58 -78 38 0
58 -18 78 -38 0
18 58 38 78 0
-57 -17 -26 -66 0
-57 17 26 -66 0
57 -17 -26 66 0
57 17 26 66 0
-57 -17 -33 -73 0
-57 17 -73 33 0
57 -17 73 -33 0
57 17 33 73 0
-57 -17 -61 -21 0
-57 17 21 -61 0
57 -17 61 -21 0
57 17 21 61 0
-60 -20 -56 -16 0
-60 20 -56 16 0
60 -20 56 -16 0
-22 62 -31 71 0
22 62 31 71 0
-61 -21 -33 -73 0
-61 21 -73 33 0
61 -21 73 -33 0
61 21 33 73 0
-62 -22 -61 -21 0
-62 22 -61 21 0
-22 62 61 -21 0
22 62 61 21 0
-61 -21 -60 -20 0
-61 21 -60 20 0
61 -21 60 -20 0
61 21 60 20 0
-60 -20 -40 -80 0
-60 20 40 -80 0
60 -20 -40 80 0
60 20 40 80 0
-60 -20 -36 -76 0
-60 20 36 -76 0
60 -20 76 -36 0
60 20 36 76 0
-59 -19 -25 -65 0
-59 19 25 -65 0
59 -19 -25 65 0
59 19 25 65 0
-59 -19 -60 -20 0
-59 19 -60 20 0
59 -19 60 -20 0
-59 -19 -14 -54 0
-59 19 14 -54 0
59 -19 54 -14 0
59 19 14 54 0
-70 -30 -14 -54 0
-70 30 14 -54 0
70 -30 54 -14 0
70 30 14 54 0
-25 -65 -14 -54 0
25 -65 14 -54 0
-25 65 54 -14 0
25 65 14 54 0
-59 -19 -53 -13 0
-59 19 13 -53 0
59 -19 -13 53 0
59 19 13 53 0
-34 -74 -53 -13 0
34 -74 13 -53 0
-34 74 53 -13 0
74 34 13 53 0
-57 -17 -53 -13 0
-57 17 13 -53 0
57 -17 -13 53 0
57 17 13 53 0
-40 -80 -12 -52 0
40 -80 12 -52 0
-40 80 -12 52 0
40 80 52 12 0
60 20 56 16 0
-26 -66 -56 -16 0
26 -66 -56 16 0
66 -26 56 -16 0
26 66 56 16 0
-15 -55 -56 -16 0
15 -55 -56 16 0
-15 55 56 -16 0
55 15 56 16 0
-15 -55 -26 -66 0
15 -55 26 -66 0
-15 55 -26 66 0
55 15 26 66 0
-22 -62 -15 -55 0
22 -62 15 -55 0
-22 62 -15 55 0
22 62 55 15 0
-15 -55 -38 -78 0
15 -55 -78 38 0
-15 55 78 -38 0
15 55 38 78 0
-14 -54 -75 -35 0
14 -54 -75 35 0
75 -35 54 -14 0
75 35 14 54 0
-31 -71 -14 -54 0
31 -71 14 -54 0
-31 71 54 -14 0
31 71 14 54 0
40 -80 31 -71 0
-40 80 -31 71 0
40 80 31 71 0
-70 -30 -39 -79 0
-70 30 39 -79 0
70 -30 -39 79 0
70 30 79 39 0
-77 -37 -70 -30 0
37 -77 -70 30 0
77 -37 70 -30 0
37 77 70 30 0
-34 -74 -70 -30 0
34 -74 -70 30 0
74 -34 70 -30 0
74 34 70 30 0
-29 -69 -32 -72 0
29 -69 32 -72 0
69 -29 72 -32 0
29 69 72 32 0
-77 -37 -29 -69 0
37 -77 29 -69 0
77 -37 69 -29 0
37 77 29 69 0
-69 -29 -31 -71 0
29 -69 31 -71 0
69 -29 -31 71 0
69 29 31 71 0
-69 -29 -68 -28 0
-39 -79 -38 -78 0
39 -79 -78 38 0
-39 79 78 -38 0
79 39 38 78 0
-39 -79 -36 -76 0
39 -79 36 -76 0
-39 79 76 -36 0
79 39 36 76 0
-77 -37 -34 -74 0
37 -77 34 -74 0
77 -37 -34 74 0
37 77 74 34 0
-33 -73 -75 -35 0
-73 33 -75 35 0
73 -33 75 -35 0
33 73 75 35 0
-33 -73 -39 -79 0
-73 33 39 -79 0
73 -33 -39 79 0
33 73 79 39 0
-77 -37 -32 -72 0
37 -77 32 -72 0
77 -37 72 -32 0
37 77 32 72 0
-34 -74 -32 -72 0
34 -74 32 -72 0
-34 74 72 -32 0
74 34 72 32 0
-40 -80 -31 -71 0
64 -24 78 -38 0
24 64 38 78 0
-34 -74 -63 -23 0
34 -74 -63 23 0
74 -34 63 -23 0
74 34 63 23 0
-69 -29 -63 -23 0
29 -69 -63 23 0
69 -29 63 -23 0
69 29 63 23 0
-63 -23 -25 -65 0
-63 23 25 -65 0
63 -23 -25 65 0
63 23 25 65 0
-29 -69 -22 -62 0
22 -62 29 -69 0
-22 62 69 -29 0
22 62 69 29 0
-22 -62 -68 -28 0
-62 22 -68 28 0
-22 62 68 -28 0
22 62 68 28 0
-22 -62 -63 -23 0
22 -62 -63 23 0
-22 62 63 -23 0
22 62 63 23 0
-22 -62 -31 -71 0
22 -62 31 -71 0
29 -69 -68 28 0
69 -29 68 -28 0
69 29 68 28 0
-27 -67 -75 -35 0
27 -67 -75 35 0
75 -35 67 -27 0
75 35 27 67 0
-40 -80 -27 -67 0
40 -80 27 -67 0
-40 80 67 -27 0
40 80 27 67 0
-70 -30 -26 -66 0
-70 30 26 -66 0
70 -30 -26 66 0
70 30 26 66 0
-34 -74 -25 -65 0
34 -74 25 -65 0
74 -34 -25 65 0
74 34 25 65 0
-25 -65 -27 -67 0
25 -65 27 -67 0
-25 65 67 -27 0
25 65 27 67 0
-33 -73 -24 -64 0
-73 33 24 -64 0
73 -33 64 -24 0
33 73 24 64 0
-24 -64 -38 -78 0
24 -64 -78 38 0
44 4 13 53 0
-4 -44 -57 -17 0
-44 4 -57 17 0
-4 44 57 -17 0
44 4 57 17 0
-44 -4 -39 -79 0
-44 4 39 -79 0
44 -4 -39 79 0
44 4 79 39 0
-44 -4 -10 -50 0
-44 4 10 -50 0
44 -4 50 -10 0
44 4 50 10 0
-44 -4 -45 -5 0
-44 4 5 -45 0
44 -4 45 -5 0
44 4 5 45 0
-3 -43 -24 -64 0
3 -43 24 -64 0
-3 43 64 -24 0
3 43 24 64 0
-3 -43 -31 -71 0
3 -43 31 -71 0
-3 43 -31 71 0
3 43 31 71 0
-63 -23 -3 -43 0
-63 23 3 -43 0
63 -23 -3 43 0
-12 52 -6 46 0
52 46 6 12 0
-15 -55 -46 -6 0
15 -55 6 -46 0
-15 55 -6 46 0
15 55 6 46 0
-46 -6 -27 -67 0
6 -46 27 -67 0
-6 46 67 -27 0
46 6 27 67 0
-70 -30 -45 -5 0
-70 30 5 -45 0
70 -30 45 -5 0
70 30 5 45 0
-45 -5 -75 -35 0
5 -45 -75 35 0
45 -5 75 -35 0
5 45 75 35 0
-45 -5 -36 -76 0
5 -45 36 -76 0
45 -5 76 -36 0
5 45 36 76 0
-45 -5 -61 -21 0
5 -45 21 -61 0
45 -5 61 -21 0
5 45 21 61 0
-44 -4 -53 -13 0
-44 4 13 -53 0
44 -4 -13 53 0
-4 -44 -42 -2 0
-44 4 -42 2 0
-4 44 42 -2 0
44 4 42 2 0
-42 -2 -38 -78 0
-42 2 -78 38 0
42 -2 78 -38 0
42 2 38 78 0
-45 -5 -1 -41 0
-45 5 1 -41 0
45 -5 -1 41 0
5 45 41 1 0
-17 -57 -1 -41 0
-57 17 1 -41 0
-17 57 -1 41 0
57 17 41 1 0
-19 -59 -1 -41 0
-59 19 1 -41 0
-19 59 -1 41 0
59 19 41 1 0
-63 -23 -1 -41 0
-63 23 1 -41 0
-23 -1 63 41 0
41 1 63 23 0
-61 -21 -1 -41 0
-61 1 21 -41 0
61 -21 -1 41 0
21 61 41 1 0
63 23 3 43 0
-3 -43 -46 -6 0
3 -43 6 -46 0
-3 43 -6 46 0
3 43 6 46 0
-60 -20 -3 -43 0
-60 20 3 -43 0
60 -20 -3 43 0
60 20 3 43 0
-43 -40 -3 -80 0
-43 40 3 -80 0
-3 43 -40 80 0
3 43 40 80 0
-42 -2 -53 -13 0
-42 2 13 -53 0
42 -2 53 -13 0
42 2 13 53 0
-42 -2 -12 -52 0
-42 2 12 -52 0
42 -2 -12 52 0
42 2 52 12 0
-42 -2 -68 -28 0
-42 2 -68 28 0
42 -2 68 -28 0
42 2 68 28 0
-33 -42 -2 -73 0
-42 -73 33 2 0
-33 73 42 -2 0
42 33 73 2 0
-71 31 10 -50 0
71 -31 50 -10 0
31 71 50 10 0
-15 -55 -50 -10 0
15 -55 10 -50 0
-15 55 50 -10 0
15 55 50 10 0
-26 -66 -10 -50 0
26 -66 10 -50 0
66 -26 50 -10 0
26 66 10 50 0
-65 -25 -50 -10 0
-65 25 10 -50 0
-25 65 50 -10 0
25 65 50 10 0
-18 -58 -9 -49 0
-58 18 9 -49 0
58 -18 -9 49 0
18 58 9 49 0
-39 -79 -9 -49 0
39 -79 9 -49 0
-39 79 49 -9 0
79 39 9 49 0
-9 -49 -32 -72 0
9 -49 32 -72 0
49 -9 72 -32 0
9 49 32 72 0
-11 -51 -9 -49 0
-12 -52 -56 -16 0
12 -52 -56 16 0
52 -12 56 -16 0
52 12 56 16 0
-12 -52 -36 -76 0
12 -52 36 -76 0
-12 52 76 -36 0
12 52 36 76 0
-11 -51 -68 -28 0
11 -51 -68 28 0
-11 51 68 -28 0
51 11 68 28 0
-11 -51 -75 -35 0
11 -51 -75 35 0
75 -35 -11 51 0
75 35 51 11 0
-11 -51 -36 -76 0
11 -51 36 -76 0
-11 51 76 -36 0
51 11 36 76 0
-26 -66 -11 -51 0
26 -66 11 -51 0
66 -26 -11 51 0
26 66 51 11 0
-51 -12 -11 -52 0
12 -52 11 -51 0
-12 52 -11 51 0
12 52 51 11 0
-31 -71 -10 -50 0
-35 75 47 -7 0
75 35 47 7 0
-9 -49 -47 -7 0
9 -49 -47 7 0
49 -9 47 -7 0
9 49 47 7 0
-56 -16 -47 -7 0
-56 16 -47 7 0
56 -16 47 -7 0
56 16 47 7 0
-50 -10 -47 -7 0
-50 10 -47 7 0
50 -10 47 -7 0
10 50 47 7 0
-53 -13 -47 -7 0
-53 13 -47 7 0
53 -13 47 -7 0
13 53 47 7 0
-24 -64 -46 -6 0
-64 24 6 -46 0
64 -24 -6 46 0
24 64 6 46 0
-38 -78 -46 -6 0
-78 38 6 -46 0
46 -6 78 -38 0
46 38 6 78 0
-46 -6 -12 -52 0
6 -46 12 -52 0
-49 11 9 -51 0
49 -9 -11 51 0
9 49 51 11 0
-16 -56 -48 -8 0
-56 16 -48 8 0
-16 56 48 -8 0
56 16 8 48 0
-32 -72 -48 -8 0
-72 32 -48 8 0
72 -32 48 -8 0
32 72 8 48 0
-28 -68 -48 -8 0
-68 28 -48 8 0
-28 68 48 -8 0
68 28 8 48 0
-27 -67 -48 -8 0
-67 27 -48 8 0
67 -27 48 -8 0
27 67 8 48 0
-14 -54 -48 -8 0
-54 -48 14 8 0
54 -14 48 -8 0
14 54 8 48 0
-36 -76 -47 -7 0
-76 36 -47 7 0
76 -36 47 -7 0
36 76 47 7 0
-35 -47 -75 -7 0
-75 35 -47 7 0
c p weight 2 0.26743738 0
c p weight -2 0.73256262 0
c p weight 3 0.55650516 0
c p weight -3 0.44349484 0
c p weight 5 0.38952737 0
c p weight -5 0.61047263 0
c p weight 6 0.56930729 0
c p weight -6 0.43069271 0
c p weight 7 0.54956904 0
c p weight -7 0.45043096 0
c p weight 8 0.61501506 0
c p weight -8 0.38498494 0
c p weight 9 0.44035042 0
c p weight -9 0.55964958 0
c p weight 10 0.24276898 0
c p weight -10 0.75723102 0
c p weight 12 0.28298598 0
c p weight -12 0.71701402 0
c p weight 13 0.39174249 0
c p weight -13 0.60825751 0
c p weight 14 0.26903515 0
c p weight -14 0.73096485 0
c p weight 15 0.79066386 0
c p weight -15 0.20933614 0
c p weight 16 0.43673017 0
c p weight -16 0.56326983 0
c p weight 17 0.32630783 0
c p weight -17 0.67369217 0
c p weight 19 0.73435627 0
c p weight -19 0.26564373 0
c p weight 20 0.39162377 0
c p weight -20 0.60837623 0
c p weight 21 0.25733673 0
c p weight -21 0.74266327 0
c p weight 23 0.54421966 0
c p weight -23 0.45578034 0
c p weight 24 0.46546383 0
c p weight -24 0.53453617 0
c p weight 25 0.22405506 0
c p weight -25 0.77594494 0
c p weight 26 0.36835400 0
c p weight -26 0.63164600 0
c p weight 28 0.63781165 0
c p weight -28 0.36218835 0
c p weight 29 0.21874216 0
c p weight -29 0.78125784 0
c p weight 30 0.40884978 0
c p weight -30 0.59115022 0
c p weight 31 0.51826547 0
c p weight -31 0.48173453 0
c p weight 32 0.54620375 0
c p weight -32 0.45379625 0
c p weight 33 0.24081568 0
c p weight -33 0.75918432 0
c p weight 34 0.36998054 0
c p weight -34 0.63001946 0
c p weight 35 0.66558178 0
c p weight -35 0.33441822 0
c p weight 36 0.33753115 0
c p weight -36 0.66246885 0
c p weight 38 0.77219658 0
c p weight -38 0.22780342 0
c p weight 40 0.79783001 0
c p weight -40 0.20216999 0
c p weight 41 0.58499134 0
c p weight -41 0.41500866 0
c p weight 42 0.33999149 0
c p weight -42 0.66000851 0
c p weight 44 0.21188905 0
c p weight -44 0.78811095 0
c p weight 46 0.78038693 0
c p weight -46 0.21961307 0
c p weight 48 0.71271713 0
c p weight -48 0.28728287 0
c p weight 49 0.59040920 0
c p weight -49 0.40959080 0
c p weight 50 0.38620180 0
c p weight -50 0.61379820 0
c p weight 53 0.26365090 0
c p weight -53 0.73634910 0
c p weight 54 0.66792715 0
c p weight -54 0.33207285 0
c p weight 55 0.37362701 0
c p weight -55 0.62637299 0
c p weight 56 0.24443787 0
c p weight -56 0.75556213 0
c p weight 57 0.47170754 0
c p weight -57 0.52829246 0
c p weight 59 0.38109466 0
c p weight -59 0.61890534 0
c p weight 60 0.69186642 0
c p weight -60 0.30813358 0
c p weight 62 0.77480801 0
c p weight -62 0.22519199 0
c p weight 65 0.31589729 0
c p weight -65 0.68410271 0
c p weight 66 0.22192538 0
c p weight -66 0.77807462 0
c p weight 67 0.77757996 0
c p weight -67 0.22242004 0
c p weight 68 0.41741469 0
c p weight -68 0.58258531 0
c p weight 69 0.56576170 0
c p weight -69 0.43423830 0
c p weight 70 0.59810146 0
c p weight -70 0.40189854 0
c p weight 71 0.75755631 0
c p weight -71 0.24244369 0
c p weight 72 0.66507103 0
c p weight -72 0.33492897 0
c p weight 73 0.46427906 0
c p weight -73 0.53572094 0
c p weight 74 0.42248515 0
c p weight -74 0.57751485 0
c p weight 75 0.36341076 0
c p weight -75 0.63658924 0
c p weight 76 0.28893722 0
c p weight -76 0.71106278 0
c p weight 78 0.56371742 0
c p weight -78 0.43628258 0
